s 1
v -1 -2 3 -4 5 -6 7 -8 -9 10 -11 -12 -13 -14 -15 16 -17 -18 19 -20 
v -21 22 23 24 -25 -26 -27 -28 29 30 31 -32 33 34 35 -36 37 38 -39 40 
v -41 42 43 44 45 -46 -47 -48 -49 -50 
t 0.397300ms(not optimized)
t 43.773100ms(optimized)
Optimization Rate: -10917.64%